Route #1: 75 68 2 62 22 28 61 21 74 48 30
Route #2: 4 29 47 36 69 71 60 70 20 37 5 45 26
Route #3: 67 7 35 8 19 54 13 57 15 27 52 46 34
Route #4: 53 14 59 11 66 65 38 58
Route #5: 12 39 72 10 31 25 55 18 50 9 40
Route #6: 33 73 1 43 42 64 41 56 23 24 49 63 16
Route #7: 6 51 3 44 32 17
Cost 731